width = 32;

n_circuits = 27;

circuit_x = array1d(1..27, [3, 3, 3, 3, 3, 3, 3, 3, 3, 3, 3, 3, 3, 3, 3, 3, 3, 3,
    3, 4, 4, 4, 4, 4, 4, 4, 4]);

circuit_y = array1d(1..27, [3, 4, 5, 6, 7, 8, 9, 10, 11, 12, 13, 14, 15, 18, 22,
    23, 24, 25, 27, 3, 4, 5, 6, 7, 10, 11, 18]);

opt_height = 32;

max_y = 27;

